unsat
(error "line 777 column 17: model is not available")
(error "line 778 column 17: model is not available")
(error "line 779 column 18: model is not available")
(error "line 780 column 18: model is not available")
(error "line 781 column 18: model is not available")
(error "line 782 column 18: model is not available")
(error "line 783 column 18: model is not available")
(error "line 784 column 18: model is not available")
(error "line 785 column 18: model is not available")
(error "line 786 column 18: model is not available")
(error "line 787 column 18: model is not available")
(error "line 788 column 18: model is not available")
(error "line 789 column 17: model is not available")
(error "line 790 column 18: model is not available")
(error "line 791 column 17: model is not available")
(error "line 792 column 17: model is not available")
(error "line 793 column 17: model is not available")
(error "line 794 column 17: model is not available")
(error "line 795 column 17: model is not available")
(error "line 796 column 17: model is not available")
(error "line 797 column 17: model is not available")
(error "line 798 column 38: model is not available")
(error "line 799 column 45: model is not available")
(error "line 800 column 38: model is not available")
(error "line 801 column 45: model is not available")
(error "line 802 column 46: model is not available")
(error "line 803 column 53: model is not available")
(error "line 804 column 40: model is not available")
(error "line 805 column 47: model is not available")
(error "line 806 column 38: model is not available")
(error "line 807 column 45: model is not available")
(error "line 808 column 38: model is not available")
(error "line 809 column 45: model is not available")
(error "line 810 column 41: model is not available")
(error "line 811 column 48: model is not available")
(error "line 812 column 41: model is not available")
(error "line 813 column 48: model is not available")
(error "line 814 column 37: model is not available")
(error "line 815 column 44: model is not available")
(error "line 816 column 42: model is not available")
(error "line 817 column 42: model is not available")
(error "line 818 column 38: model is not available")
(error "line 819 column 38: model is not available")
(error "line 820 column 38: model is not available")
(error "line 821 column 41: model is not available")
(error "line 822 column 48: model is not available")
(error "line 823 column 36: model is not available")
(error "line 824 column 47: model is not available")
(error "line 825 column 44: model is not available")
(error "line 826 column 38: model is not available")
(error "line 827 column 38: model is not available")
(error "line 828 column 38: model is not available")
(error "line 829 column 19: model is not available")
(error "line 830 column 26: model is not available")
(error "line 831 column 19: model is not available")
(error "line 832 column 26: model is not available")
(error "line 833 column 19: model is not available")
(error "line 834 column 26: model is not available")
(error "line 835 column 19: model is not available")
(error "line 836 column 26: model is not available")
(error "line 837 column 36: model is not available")
(error "line 838 column 34: model is not available")
(error "line 839 column 34: model is not available")
(error "line 840 column 34: model is not available")
(error "line 841 column 34: model is not available")
(error "line 842 column 34: model is not available")
(error "line 843 column 34: model is not available")
(error "line 844 column 29: model is not available")
(error "line 845 column 31: model is not available")
(error "line 846 column 38: model is not available")
(error "line 847 column 31: model is not available")
(error "line 848 column 38: model is not available")
(error "line 849 column 31: model is not available")
(error "line 850 column 38: model is not available")
(error "line 851 column 31: model is not available")
(error "line 852 column 38: model is not available")
(error "line 853 column 31: model is not available")
(error "line 854 column 38: model is not available")
(error "line 855 column 30: model is not available")
(error "line 856 column 32: model is not available")
(error "line 857 column 39: model is not available")
(error "line 858 column 32: model is not available")
(error "line 859 column 39: model is not available")
(error "line 860 column 32: model is not available")
(error "line 861 column 39: model is not available")
(error "line 862 column 32: model is not available")
(error "line 863 column 39: model is not available")
(error "line 864 column 32: model is not available")
(error "line 865 column 39: model is not available")
(error "line 866 column 32: model is not available")
(error "line 867 column 39: model is not available")
(error "line 868 column 32: model is not available")
(error "line 869 column 39: model is not available")
(error "line 870 column 32: model is not available")
(error "line 871 column 39: model is not available")
(error "line 872 column 32: model is not available")
(error "line 873 column 34: model is not available")
(error "line 874 column 36: model is not available")
(error "line 875 column 43: model is not available")
(error "line 876 column 36: model is not available")
(error "line 877 column 43: model is not available")
(error "line 878 column 52: model is not available")
(error "line 879 column 52: model is not available")
(error "line 880 column 52: model is not available")
(error "line 881 column 52: model is not available")
(error "line 882 column 52: model is not available")
(error "line 883 column 51: model is not available")
(error "line 884 column 50: model is not available")
(error "line 885 column 51: model is not available")
(error "line 886 column 51: model is not available")
(error "line 887 column 50: model is not available")
(error "line 888 column 50: model is not available")
(error "line 889 column 52: model is not available")
(error "line 890 column 51: model is not available")
(error "line 891 column 50: model is not available")
(error "line 892 column 50: model is not available")
(error "line 893 column 56: model is not available")
(error "line 894 column 21: model is not available")
(error "line 895 column 28: model is not available")
(error "line 896 column 21: model is not available")
(error "line 897 column 28: model is not available")
(error "line 898 column 21: model is not available")
(error "line 899 column 28: model is not available")
(error "line 900 column 21: model is not available")
(error "line 901 column 28: model is not available")
(error "line 902 column 20: model is not available")
(error "line 903 column 27: model is not available")
(error "line 904 column 20: model is not available")
(error "line 905 column 27: model is not available")
(error "line 906 column 20: model is not available")
(error "line 907 column 27: model is not available")
(error "line 908 column 20: model is not available")
(error "line 909 column 27: model is not available")
(error "line 910 column 20: model is not available")
(error "line 911 column 27: model is not available")
(error "line 912 column 54: model is not available")
(error "line 913 column 52: model is not available")
(error "line 914 column 49: model is not available")
(error "line 915 column 49: model is not available")
(error "line 916 column 49: model is not available")
(error "line 917 column 44: model is not available")
(error "line 918 column 44: model is not available")
(error "line 919 column 44: model is not available")
(error "line 920 column 44: model is not available")
(error "line 921 column 49: model is not available")
(error "line 922 column 46: model is not available")
(error "line 923 column 46: model is not available")
(error "line 924 column 54: model is not available")
(error "line 925 column 54: model is not available")
(error "line 926 column 54: model is not available")
(error "line 927 column 40: model is not available")
(error "line 928 column 40: model is not available")
(error "line 929 column 41: model is not available")
(error "line 930 column 41: model is not available")
(error "line 931 column 50: model is not available")
(error "line 932 column 50: model is not available")
(error "line 933 column 43: model is not available")
(error "line 934 column 43: model is not available")
(error "line 935 column 44: model is not available")
(error "line 936 column 53: model is not available")
(error "line 937 column 50: model is not available")
(error "line 938 column 50: model is not available")
(error "line 939 column 46: model is not available")
(error "line 940 column 50: model is not available")
(error "line 941 column 50: model is not available")
(error "line 942 column 52: model is not available")
(error "line 943 column 21: model is not available")
(error "line 944 column 28: model is not available")
(error "line 945 column 21: model is not available")
(error "line 946 column 28: model is not available")
(error "line 947 column 30: model is not available")
(error "line 948 column 41: model is not available")
(error "line 949 column 39: model is not available")
(error "line 950 column 39: model is not available")
(error "line 951 column 39: model is not available")
(error "line 952 column 36: model is not available")
(error "line 953 column 36: model is not available")
(error "line 954 column 38: model is not available")
(error "line 955 column 38: model is not available")
(error "line 956 column 35: model is not available")
(error "line 958 column 10: model is not available")
(:max-memory   3.49
 :memory       3.18
 :mk-bool-var  5
 :num-allocs   1159535
 :rlimit-count 188
 :time         0.00
 :total-time   0.01)

real	0m0.012s
user	0m0.009s
sys	0m0.003s
State: RE Run_time: 0.01411581039428711